; benchmark generated from python API
(set-info :status unknown)
(declare-datatypes ((IntState 0)) (((Mk1 (val1 Int)) (Mk2 (val2 Int)))))
 (declare-fun |c_hanoi_#t~ret0| () Int)
(declare-fun |c_hanoi_#in~n| () Int)
(declare-fun c_hanoi_~n () Int)
(assert
 (let (($x72 (exists ((v_nnf_239_st IntState) (val!86 Int) )(exists ((v_nnf_238_st IntState) (val!87 Int) )(exists ((v_nnf_237_st IntState) (val!88 Int) )(let (($x36 (<= |c_hanoi_#in~n| 5)))
 (let (($x174 (and $x36 (<= (+ (* 2 (val2 v_nnf_239_st)) 1) (val2 v_nnf_238_st)) (<= 1 (val2 v_nnf_237_st)) (<= (+ (* 2 (val2 v_nnf_237_st)) 1) (val2 v_nnf_239_st)) (<= (+ (* 2 (val2 v_nnf_238_st)) 1) |c_hanoi_#t~ret0|))))
 (let (($x52 (not (= v_nnf_237_st (Mk1 val!88)))))
 (let (($x161 (not (= v_nnf_238_st (Mk1 val!87)))))
 (let (($x177 (not (= v_nnf_239_st (Mk1 val!86)))))
 (and $x177 $x161 $x52 $x174)))))))
 )
 )
 ))
 (let (($x73 (exists ((v_nnf_236 Int) )(exists ((v_nnf_235 Int) )(exists ((v_nnf_234 Int) )(let (($x46 (<= (+ (* 2 v_nnf_235) 1) |c_hanoi_#t~ret0|)))
 (let (($x123 (<= c_hanoi_~n 5)))
 (and $x123 $x46 (<= 1 v_nnf_236) (<= (+ (* 2 v_nnf_236) 1) v_nnf_234) (<= (+ (* 2 v_nnf_234) 1) v_nnf_235) (<= |c_hanoi_#in~n| c_hanoi_~n)))))
 )
 )
 ))
 (and $x73 (not $x72)))))
(check-sat)
